WARNING: for repeatability, setting FPU to use double precision
============================[ Problem Statistics ]=============================
|                                                                             |
|  Number of variables:            50                                         |
|  Number of clauses:             218                                         |
|  Parse time:                   0.00 s                                       |
|                                                                             |
============================[ Search Statistics ]==============================
| Conflicts |          ORIGINAL         |          LEARNT          | Progress |
|           |    Vars  Clauses Literals |    Limit  Clauses Lit/Cl |          |
===============================================================================
===============================================================================
restarts              : 1
conflicts             : 36             (297521 /sec)
decisions             : 49             (0.00 % random) (404959 /sec)
propagations          : 511            (4223140 /sec)
conflict literals     : 164            (15.46 % deleted)
Memory used           : 20.00 MB
CPU time              : 0.000121 s

SATISFIABLE
